\ENCODING=ISO-8859-1
\Problem name: 

Maximize
 obj: 15978 x1 + 15973 x2 + 15972 x3 + 15974 x4 + 15981 x5 + 15978 x6
      + 15981 x7 + 15978 x8 + 15970 x9 + 15970 x10 + 15968 x11 + 15973 x12
      + 15960 x13 + 15960 x14 + 15960 x15 + 15978 x16 + 15973 x17 + 15972 x18
      + 15974 x19 + 15981 x20 + 15978 x21 + 15981 x22 + 15978 x23 + 15970 x24
      + 15970 x25 + 15968 x26 + 15973 x27 + 15960 x28 + 15960 x29 + 15960 x30
      + 15978 x31 + 15973 x32 + 15972 x33 + 15974 x34 + 15981 x35 + 15978 x36
      + 15981 x37 + 15978 x38 + 15970 x39 + 15970 x40 + 15968 x41 + 15973 x42
      + 15960 x43 + 15960 x44 + 15960 x45
Subject To
 c1:  x1 + x16 + x31 <= 1
 c2:  x2 + x17 + x32 <= 1
 c3:  x3 + x18 + x33 <= 1
 c4:  x4 + x19 + x34 <= 1
 c5:  x5 + x20 + x35 <= 1
 c6:  x6 + x21 + x36 <= 1
 c7:  x7 + x22 + x37 <= 1
 c8:  x8 + x23 + x38 <= 1
 c9:  x9 + x24 + x39 <= 1
 c10: x10 + x25 + x40 <= 1
 c11: x11 + x26 + x41 <= 1
 c12: x12 + x27 + x42 <= 1
 c13: x13  = 1
 c14: x14  = 0
 c15: x15  = 0
 c16: x28  = 0
 c17: x29  = 1
 c18: x30  = 0
 c19: x43  = 0
 c20: x44  = 0
 c21: x45  = 1
Bounds
 0 <= x1 <= 1
 0 <= x2 <= 1
 0 <= x3 <= 1
 0 <= x4 <= 1
 0 <= x5 <= 1
 0 <= x6 <= 1
 0 <= x7 <= 1
 0 <= x8 <= 1
 0 <= x9 <= 1
 0 <= x10 <= 1
 0 <= x11 <= 1
 0 <= x12 <= 1
 0 <= x13 <= 1
 0 <= x14 <= 1
 0 <= x15 <= 1
 0 <= x16 <= 1
 0 <= x17 <= 1
 0 <= x18 <= 1
 0 <= x19 <= 1
 0 <= x20 <= 1
 0 <= x21 <= 1
 0 <= x22 <= 1
 0 <= x23 <= 1
 0 <= x24 <= 1
 0 <= x25 <= 1
 0 <= x26 <= 1
 0 <= x27 <= 1
 0 <= x28 <= 1
 0 <= x29 <= 1
 0 <= x30 <= 1
 0 <= x31 <= 1
 0 <= x32 <= 1
 0 <= x33 <= 1
 0 <= x34 <= 1
 0 <= x35 <= 1
 0 <= x36 <= 1
 0 <= x37 <= 1
 0 <= x38 <= 1
 0 <= x39 <= 1
 0 <= x40 <= 1
 0 <= x41 <= 1
 0 <= x42 <= 1
 0 <= x43 <= 1
 0 <= x44 <= 1
 0 <= x45 <= 1
End
